; DUP1 MLOAD SWAP1 PUSH cw_0 ADD POP => MLOAD
(set-option :produce-proofs true)
; 
(set-info :status unknown)
(declare-fun storage_t ((_ BitVec 256) (_ BitVec 256) (_ BitVec 256) Int (_ BitVec 256)) (_ BitVec 256))
(declare-fun w_0 () (_ BitVec 256))
(declare-fun storage_s ((_ BitVec 256) (_ BitVec 256) (_ BitVec 256) Int (_ BitVec 256)) (_ BitVec 256))
(declare-fun exc_halt_t (Int) Bool)
(declare-fun exc_halt_s (Int) Bool)
(declare-fun sc_t (Int) (_ BitVec 6))
(declare-fun stack_t ((_ BitVec 256) (_ BitVec 256) (_ BitVec 256) Int (_ BitVec 6)) (_ BitVec 256))
(declare-fun stack_s ((_ BitVec 256) (_ BitVec 256) (_ BitVec 256) Int (_ BitVec 6)) (_ BitVec 256))
(declare-fun sc_s (Int) (_ BitVec 6))
(declare-fun used_gas_t ((_ BitVec 256) (_ BitVec 256) (_ BitVec 256) Int) Int)
(declare-fun used_gas_s ((_ BitVec 256) (_ BitVec 256) (_ BitVec 256) Int) Int)
(declare-fun f_MLOAD ((_ BitVec 256) (_ BitVec 256) (_ BitVec 256) (_ BitVec 256)) (_ BitVec 256))
(assert
 (exists ((x_0 (_ BitVec 256)) (x_MLOAD_0 (_ BitVec 256)) )(let (($x4254 (forall ((w (_ BitVec 256)) )(let ((?x4372 (storage_t x_0 w_0 x_MLOAD_0 1 w)))
 (let ((?x4921 (storage_s x_0 w_0 x_MLOAD_0 6 w)))
 (= ?x4921 ?x4372))))
 ))
 (let (($x8390 (exc_halt_t 1)))
 (let (($x7121 (exc_halt_s 6)))
 (let (($x2318 (= $x7121 $x8390)))
 (let (($x1164 (forall ((n (_ BitVec 6)) )(let ((?x2547 (sc_t 1)))
 (let (($x8264 (bvsle ?x2547 n)))
 (let ((?x368 (stack_t x_0 w_0 x_MLOAD_0 1 n)))
 (let ((?x8917 (stack_s x_0 w_0 x_MLOAD_0 6 n)))
 (let (($x409 (= ?x8917 ?x368)))
 (or $x409 $x8264)))))))
 ))
 (let ((?x2547 (sc_t 1)))
 (let ((?x9114 (sc_s 6)))
 (let (($x6760 (= ?x9114 ?x2547)))
 (let ((?x11921 (used_gas_t x_0 w_0 x_MLOAD_0 0)))
 (let ((?x8369 (used_gas_s x_0 w_0 x_MLOAD_0 0)))
 (let (($x201 (= ?x8369 ?x11921)))
 (let (($x9585 (forall ((w (_ BitVec 256)) )(let ((?x4999 (storage_t x_0 w_0 x_MLOAD_0 0 w)))
 (let ((?x7241 (storage_s x_0 w_0 x_MLOAD_0 0 w)))
 (= ?x7241 ?x4999))))
 ))
 (let (($x56 (exc_halt_t 0)))
 (let (($x57 (exc_halt_s 0)))
 (let (($x58 (= $x57 $x56)))
 (let (($x4475 (forall ((n (_ BitVec 6)) )(let ((?x5153 (stack_t x_0 w_0 x_MLOAD_0 0 n)))
 (let ((?x6478 (stack_s x_0 w_0 x_MLOAD_0 0 n)))
 (let (($x8412 (= ?x6478 ?x5153)))
 (let ((?x63 (sc_t 0)))
 (let (($x5163 (bvsle ?x63 n)))
 (or $x5163 $x8412)))))))
 ))
 (let ((?x63 (sc_t 0)))
 (let ((?x72 (sc_s 0)))
 (let (($x73 (= ?x72 ?x63)))
 (let (($x181 (= $x8390 (or $x56 (not (bvsle (_ bv0 6) (bvadd (_ bv63 6) ?x63)))))))
 (let (($x6086 (forall ((w (_ BitVec 256)) )(let ((?x4999 (storage_t x_0 w_0 x_MLOAD_0 0 w)))
 (let ((?x4372 (storage_t x_0 w_0 x_MLOAD_0 1 w)))
 (= ?x4372 ?x4999))))
 ))
 (let (($x11245 (forall ((n (_ BitVec 6)) )(let ((?x5153 (stack_t x_0 w_0 x_MLOAD_0 0 n)))
 (let ((?x368 (stack_t x_0 w_0 x_MLOAD_0 1 n)))
 (let ((?x63 (sc_t 0)))
 (let ((?x8237 (bvadd (_ bv63 6) ?x63)))
 (let (($x3984 (bvsle ?x8237 n)))
 (or $x3984 (= ?x368 ?x5153))))))))
 ))
 (let (($x8940 (= ?x2547 ?x63)))
 (let ((?x4516 (f_MLOAD x_0 w_0 x_MLOAD_0 (stack_t x_0 w_0 x_MLOAD_0 0 (bvadd (_ bv63 6) ?x63)))))
 (let (($x3199 (= $x7121 (or (exc_halt_s 5) (not (bvsle (_ bv0 6) (bvadd (_ bv63 6) (sc_s 5))))))))
 (let (($x5391 (forall ((w (_ BitVec 256)) )(let ((?x9466 (storage_s x_0 w_0 x_MLOAD_0 5 w)))
 (let ((?x4921 (storage_s x_0 w_0 x_MLOAD_0 6 w)))
 (= ?x4921 ?x9466))))
 ))
 (let (($x8192 (forall ((n (_ BitVec 6)) )(let ((?x8510 (stack_s x_0 w_0 x_MLOAD_0 5 n)))
 (let ((?x8917 (stack_s x_0 w_0 x_MLOAD_0 6 n)))
 (or (bvsle (bvadd (_ bv63 6) (sc_s 5)) n) (= ?x8917 ?x8510)))))
 ))
 (let (($x11408 (= (used_gas_s x_0 w_0 x_MLOAD_0 6) (+ 2 (used_gas_s x_0 w_0 x_MLOAD_0 5)))))
 (let (($x1862 (exc_halt_s 5)))
 (let (($x11882 (= $x1862 (or (exc_halt_s 4) (not (bvsle (_ bv0 6) (bvadd (_ bv62 6) (sc_s 4))))))))
 (let (($x8407 (forall ((w (_ BitVec 256)) )(let ((?x612 (storage_s x_0 w_0 x_MLOAD_0 4 w)))
 (let ((?x9466 (storage_s x_0 w_0 x_MLOAD_0 5 w)))
 (= ?x9466 ?x612))))
 ))
 (let (($x9501 (forall ((n (_ BitVec 6)) )(let ((?x7959 (stack_s x_0 w_0 x_MLOAD_0 4 n)))
 (let ((?x8510 (stack_s x_0 w_0 x_MLOAD_0 5 n)))
 (let ((?x9433 (sc_s 4)))
 (let ((?x584 (bvadd (_ bv62 6) ?x9433)))
 (let (($x7420 (bvsle ?x584 n)))
 (or $x7420 (= ?x8510 ?x7959))))))))
 ))
 (let ((?x1644 (used_gas_s x_0 w_0 x_MLOAD_0 5)))
 (let ((?x2768 (bvadd (stack_s x_0 w_0 x_MLOAD_0 4 (bvadd (_ bv63 6) (sc_s 4))) (stack_s x_0 w_0 x_MLOAD_0 4 (bvadd (_ bv62 6) (sc_s 4))))))
 (let (($x8103 (exc_halt_s 3)))
 (let (($x8784 (or $x8103 (not (= ((_ extract 6 6) (bvadd (_ bv1 7) (concat (_ bv0 1) (sc_s 3)))) (_ bv0 1))))))
 (let (($x9175 (exc_halt_s 4)))
 (let (($x5471 (forall ((w (_ BitVec 256)) )(let ((?x11843 (storage_s x_0 w_0 x_MLOAD_0 3 w)))
 (let ((?x612 (storage_s x_0 w_0 x_MLOAD_0 4 w)))
 (= ?x612 ?x11843))))
 ))
 (let (($x1213 (forall ((n (_ BitVec 6)) )(let ((?x2998 (stack_s x_0 w_0 x_MLOAD_0 3 n)))
 (let ((?x7959 (stack_s x_0 w_0 x_MLOAD_0 4 n)))
 (or (bvsle (sc_s 3) n) (= ?x7959 ?x2998)))))
 ))
 (let ((?x10534 (used_gas_s x_0 w_0 x_MLOAD_0 4)))
 (let (($x3778 (= $x8103 (or (exc_halt_s 2) (not (bvsle (_ bv0 6) (bvadd (_ bv62 6) (sc_s 2))))))))
 (let (($x3563 (forall ((w (_ BitVec 256)) )(let ((?x8432 (storage_s x_0 w_0 x_MLOAD_0 2 w)))
 (let ((?x11843 (storage_s x_0 w_0 x_MLOAD_0 3 w)))
 (= ?x11843 ?x8432))))
 ))
 (let (($x5203 (forall ((n (_ BitVec 6)) )(let ((?x8167 (stack_s x_0 w_0 x_MLOAD_0 2 n)))
 (let ((?x2998 (stack_s x_0 w_0 x_MLOAD_0 3 n)))
 (let ((?x2272 (sc_s 2)))
 (let ((?x3112 (bvadd (_ bv62 6) ?x2272)))
 (let (($x8329 (bvsle ?x3112 n)))
 (or $x8329 (= ?x2998 ?x8167))))))))
 ))
 (let ((?x2272 (sc_s 2)))
 (let ((?x3851 (sc_s 3)))
 (let (($x1799 (= ?x3851 ?x2272)))
 (let ((?x11956 (used_gas_s x_0 w_0 x_MLOAD_0 3)))
 (let ((?x5543 (bvadd (_ bv63 6) ?x2272)))
 (let ((?x2740 (stack_s x_0 w_0 x_MLOAD_0 2 ?x5543)))
 (let (($x7931 (= (stack_s x_0 w_0 x_MLOAD_0 3 (bvadd (_ bv63 6) ?x3851)) (stack_s x_0 w_0 x_MLOAD_0 2 (bvadd (_ bv62 6) ?x2272)))))
 (let (($x10052 (exc_halt_s 2)))
 (let (($x3898 (= $x10052 (or (exc_halt_s 1) (not (bvsle (_ bv0 6) (bvadd (_ bv63 6) (sc_s 1))))))))
 (let (($x6491 (forall ((w (_ BitVec 256)) )(let ((?x6727 (storage_s x_0 w_0 x_MLOAD_0 1 w)))
 (let ((?x8432 (storage_s x_0 w_0 x_MLOAD_0 2 w)))
 (= ?x8432 ?x6727))))
 ))
 (let (($x9327 (forall ((n (_ BitVec 6)) )(let ((?x154 (sc_s 1)))
 (let ((?x5037 (bvadd (_ bv63 6) ?x154)))
 (let (($x11618 (bvsle ?x5037 n)))
 (let ((?x9919 (stack_s x_0 w_0 x_MLOAD_0 1 n)))
 (let ((?x8167 (stack_s x_0 w_0 x_MLOAD_0 2 n)))
 (or (= ?x8167 ?x9919) $x11618)))))))
 ))
 (let ((?x154 (sc_s 1)))
 (let (($x43 (= ?x2272 ?x154)))
 (let ((?x7569 (used_gas_s x_0 w_0 x_MLOAD_0 2)))
 (let ((?x5037 (bvadd (_ bv63 6) ?x154)))
 (let ((?x635 (stack_s x_0 w_0 x_MLOAD_0 1 ?x5037)))
 (let (($x7461 (not (= ((_ extract 6 6) (bvadd (_ bv1 7) (concat (_ bv0 1) ?x72))) (_ bv0 1)))))
 (let (($x8780 (exc_halt_s 1)))
 (let (($x8690 (= $x8780 (or $x57 (not (bvsle (_ bv0 6) (bvadd (_ bv63 6) ?x72))) $x7461))))
 (let (($x385 (forall ((w (_ BitVec 256)) )(let ((?x7241 (storage_s x_0 w_0 x_MLOAD_0 0 w)))
 (let ((?x6727 (storage_s x_0 w_0 x_MLOAD_0 1 w)))
 (= ?x6727 ?x7241))))
 ))
 (let (($x8759 (forall ((n (_ BitVec 6)) )(let ((?x72 (sc_s 0)))
 (let ((?x9462 (bvadd (_ bv63 6) ?x72)))
 (let (($x9755 (bvsle ?x9462 n)))
 (let ((?x6478 (stack_s x_0 w_0 x_MLOAD_0 0 n)))
 (let ((?x9919 (stack_s x_0 w_0 x_MLOAD_0 1 n)))
 (or (= ?x9919 ?x6478) $x9755)))))))
 ))
 (let (($x185 (= ?x154 (bvadd (_ bv1 6) ?x72))))
 (let ((?x9462 (bvadd (_ bv63 6) ?x72)))
 (let ((?x6906 (stack_s x_0 w_0 x_MLOAD_0 0 ?x9462)))
 (let (($x3145 (forall ((w0 (_ BitVec 256)) )(let ((?x3780 (ite (= (stack_s x_0 w_0 x_MLOAD_0 1 (bvadd (_ bv63 6) (sc_s 1))) w0) x_MLOAD_0 (_ bv0 256))))
 (let ((?x10034 (f_MLOAD x_0 w_0 x_MLOAD_0 w0)))
 (= ?x10034 ?x3780))))
 ))
 (let (($x2136 (forall ((w (_ BitVec 256)) )(let ((?x7241 (storage_s x_0 w_0 x_MLOAD_0 0 w)))
 (= ?x7241 (_ bv0 256))))
 ))
 (let (($x4243 (= ?x8369 0)))
 (let (($x5099 (not $x57)))
 (let (($x6015 (= (stack_s x_0 w_0 x_MLOAD_0 0 (_ bv0 6)) x_0)))
 (let (($x8601 (= ?x72 (_ bv1 6))))
 (and $x8601 $x6015 $x5099 $x4243 $x2136 $x3145 (= ?x635 ?x6906) (= (stack_s x_0 w_0 x_MLOAD_0 1 ?x9462) ?x6906) (= (used_gas_s x_0 w_0 x_MLOAD_0 1) (+ 3 ?x8369)) $x185 $x8759 $x385 $x8690 (= ?x2740 (f_MLOAD x_0 w_0 x_MLOAD_0 ?x635)) (= ?x7569 (+ 3 (used_gas_s x_0 w_0 x_MLOAD_0 1))) $x43 $x9327 $x6491 $x3898 $x7931 (= (stack_s x_0 w_0 x_MLOAD_0 3 (bvadd (_ bv62 6) ?x3851)) ?x2740) (= ?x11956 (+ 3 ?x7569)) $x1799 $x5203 $x3563 $x3778 (= (stack_s x_0 w_0 x_MLOAD_0 4 ?x3851) w_0) (= ?x10534 (+ 3 ?x11956)) (= (sc_s 4) (bvadd (_ bv1 6) ?x3851)) $x1213 $x5471 (= $x9175 $x8784) (= (stack_s x_0 w_0 x_MLOAD_0 5 (bvadd (_ bv63 6) (sc_s 5))) ?x2768) (= ?x1644 (+ 3 ?x10534)) (= (sc_s 5) (bvadd (_ bv63 6) (sc_s 4))) $x9501 $x8407 $x11882 $x11408 (= ?x9114 (bvadd (_ bv63 6) (sc_s 5))) $x8192 $x5391 $x3199 (= (stack_t x_0 w_0 x_MLOAD_0 1 (bvadd (_ bv63 6) ?x2547)) ?x4516) (= (used_gas_t x_0 w_0 x_MLOAD_0 1) (+ 3 ?x11921)) $x8940 $x11245 $x6086 $x181 $x73 $x4475 $x58 $x9585 $x201 (not (and $x6760 $x1164 $x2318 $x4254)))))))))))))))))))))))))))))))))))))))))))))))))))))))))))))))))))))))))))))
 )
(check-sat)
(get-proof)
